k = 20;
b = 10;
AtomicConstraints =  [|
1, 13|
	2, 1|
	2, 3|
	2, 4|
	2, 13|
	4, 3|
	5, 3|
	5, 4|
	7, 1|
	7, 2|
	7, 3|
	7, 4|
	7, 13|
	7, 18|
	7, 19|
	7, 10|
	7, 16|
	7, 20|
	7, 17|
	12, 1|
	12, 13|
	12, 10|
	12, 17|
	11, 1|
	11, 2|
	11, 3|
	11, 4|
	11, 13|
	11, 5|
	11, 6|
	11, 7|
	11, 18|
	11, 19|
	11, 10|
	11, 16|
	11, 20|
	11, 17|
	11, 14|
	8, 1|
	8, 2|
	8, 3|
	8, 4|
	8, 13|
	8, 7|
	8, 12|
	8, 18|
	8, 19|
	8, 10|
	8, 16|
	8, 20|
	8, 17|
	15, 1|
	15, 13|
	15, 12|
	15, 19|
	15, 10|
	15, 20|
	15, 17|
	9, 1|
	9, 13|
	9, 12|
	9, 10|
	9, 17|
	6, 1|
	6, 2|
	6, 3|
	6, 4|
	6, 13|
	6, 5|
	18, 1|
	18, 2|
	18, 3|
	18, 4|
	18, 13|
	19, 1|
	19, 13|
	10, 1|
	10, 13|
	16, 1|
	16, 2|
	16, 3|
	16, 4|
	16, 13|
	16, 18|
	16, 19|
	16, 10|
	20, 1|
	20, 13|
	20, 19|
	20, 10|
	17, 1|
	17, 13|
	17, 10|
	14, 1|
	14, 2|
	14, 3|
	14, 4|
	14, 13|
	14, 5|
	14, 6|
	14, 18|
	14, 19|
	14, 10|
	14, 16|
	14, 20|];
DisjunctiveConstraints =  [|2, 13, 2, 3|
	7, 2, 7, 12|
	7, 4, 7, 14|
	7, 13, 7, 3|
	12, 1, 12, 11|
	12, 13, 12, 3|
	11, 5, 11, 15|
	8, 2, 8, 12|
	8, 4, 8, 14|
	8, 13, 8, 3|
	15, 19, 15, 9|
	9, 1, 9, 11|
	9, 13, 9, 3|
	6, 5, 6, 15|
	18, 4, 18, 14|
	18, 13, 18, 3|
	10, 13, 10, 3|
	16, 4, 16, 14|
	16, 13, 16, 3|
	17, 1, 17, 11|
	17, 13, 17, 3|
	14, 5, 14, 15|];
SoftAtomicConstraints =  [|
5, 1|
14, 7|
11, 8|
15, 9|
19, 10|
7, 12|
4, 13|
8, 15|
20, 17|
6, 18|
18, 19|
16, 20|];
DirectSuccessors =  [];
